 H  C                                   
   1.00000000000000     
     8.0000000000000000    0.0000000000000000    0.0000000000000000
     0.0000000000000000    8.0000000000000000    0.0000000000000000
     0.0000000000000000    0.0000000000000000    8.0000000000000000
   H    C 
     4     2
Direct
  0.0000000000000000  0.1170967139622645  0.1557890989839445
  0.0000000000000000  0.8829032860377354  0.1557890989839445
  0.0000000000000000  0.1170967139622645  0.8442109010160554
  0.0000000000000000  0.8829032860377354  0.8442109010160554
  0.0000000000000000  0.0000000000000000  0.0839297285391225
  0.0000000000000000  0.0000000000000000  0.9160702714608775
 
  0.00000000E+00  0.00000000E+00  0.00000000E+00
  0.00000000E+00  0.00000000E+00  0.00000000E+00
  0.00000000E+00  0.00000000E+00  0.00000000E+00
  0.00000000E+00  0.00000000E+00  0.00000000E+00
  0.00000000E+00  0.00000000E+00  0.00000000E+00
  0.00000000E+00  0.00000000E+00  0.00000000E+00
