 H  C 
 1.0000000000000000
     8.0000000000000000    0.0000000000000000    0.0000000000000000
     0.0000000000000000    8.0000000000000000    0.0000000000000000
     0.0000000000000000    0.0000000000000000    8.0000000000000000
   4   2
Cartesian
  0.0000000000000000  0.9228320000000000  1.2376950000000000
  0.0000000000000000 -0.9228320000000000  1.2376950000000000
  0.0000000000000000  0.9228320000000000 -1.2376950000000000
  0.0000000000000000 -0.9228320000000000 -1.2376950000000000
  0.0000000000000000  0.0000000000000000  0.6674800000000000
  0.0000000000000000  0.0000000000000000 -0.6674800000000000
