 H  C                                   
   1.00000000000000     
     8.0000000000000000    0.0000000000000000    0.0000000000000000
     0.0000000000000000    8.0000000000000000    0.0000000000000000
     0.0000000000000000    0.0000000000000000    8.0000000000000000
   H    C 
     6     2
Direct
  0.0000000000000000  0.1294451443438929  0.1457484643541141
  0.8878687987866284  0.9353389015660227  0.1457799125452539
  0.1121312012133716  0.9353389015660227  0.1457799125452539
  0.0000000000000000  0.8705548556561070  0.8542515356458859
  0.8878687987866284  0.0646610984339771  0.8542200874547461
  0.1121312012133716  0.0646610984339771  0.8542200874547461
  0.0000000000000000  0.0000188373397817  0.0966610232311807
  0.0000000000000000 -0.0000188373397817  0.9033389767688192
 
  0.00000000E+00  0.00000000E+00  0.00000000E+00
  0.00000000E+00  0.00000000E+00  0.00000000E+00
  0.00000000E+00  0.00000000E+00  0.00000000E+00
  0.00000000E+00  0.00000000E+00  0.00000000E+00
  0.00000000E+00  0.00000000E+00  0.00000000E+00
  0.00000000E+00  0.00000000E+00  0.00000000E+00
  0.00000000E+00  0.00000000E+00  0.00000000E+00
  0.00000000E+00  0.00000000E+00  0.00000000E+00
