 C Cl                                   
   1.00000000000000     
     8.0000000000000000    0.0000000000000000    0.0000000000000000
     0.0000000000000000    8.0000000000000000    0.0000000000000000
     0.0000000000000000    0.0000000000000000    8.0000000000000000
   C    Cl
     1     4
Direct
  0.0000000000000000  0.0000000000000000  0.0000000000000000
  0.1282179266768347  0.1282179266768347  0.1282179266768347
  0.8717820733231653  0.8717820733231653  0.1282179266768347
  0.8717820733231653  0.1282179266768347  0.8717820733231653
  0.1282179266768347  0.8717820733231653  0.8717820733231653
 
  0.00000000E+00  0.00000000E+00  0.00000000E+00
  0.00000000E+00  0.00000000E+00  0.00000000E+00
  0.00000000E+00  0.00000000E+00  0.00000000E+00
  0.00000000E+00  0.00000000E+00  0.00000000E+00
  0.00000000E+00  0.00000000E+00  0.00000000E+00
