 H  C                                   
   1.00000000000000     
     8.0000000000000000    0.0000000000000000    0.0000000000000000
     0.0000000000000000    8.0000000000000000    0.0000000000000000
     0.0000000000000000    0.0000000000000000    8.0000000000000000
   H    C 
     4     2
Direct
  0.0000000000000000  0.1163959520228394  0.1552657323078803
  0.0000000000000000  0.8836040479771606  0.1552657323078803
  0.0000000000000000  0.1163959520228394  0.8447342676921197
  0.0000000000000000  0.8836040479771606  0.8447342676921197
  0.0000000000000000  0.0000000000000000  0.0833997985365860
  0.0000000000000000  0.0000000000000000  0.9166002014634139
 
  0.00000000E+00  0.00000000E+00  0.00000000E+00
  0.00000000E+00  0.00000000E+00  0.00000000E+00
  0.00000000E+00  0.00000000E+00  0.00000000E+00
  0.00000000E+00  0.00000000E+00  0.00000000E+00
  0.00000000E+00  0.00000000E+00  0.00000000E+00
  0.00000000E+00  0.00000000E+00  0.00000000E+00
