 C  F                                   
   1.00000000000000     
     8.0000000000000000    0.0000000000000000    0.0000000000000000
     0.0000000000000000    8.0000000000000000    0.0000000000000000
     0.0000000000000000    0.0000000000000000    8.0000000000000000
   C    F 
     1     4
Direct
  0.0000000000000000  0.0000000000000000  0.0000000000000000
  0.0973543667784964  0.0973543667784964  0.0973543667784964
  0.9026456332215036  0.9026456332215036  0.0973543667784964
  0.9026456332215036  0.0973543667784964  0.9026456332215036
  0.0973543667784964  0.9026456332215036  0.9026456332215036
 
  0.00000000E+00  0.00000000E+00  0.00000000E+00
  0.00000000E+00  0.00000000E+00  0.00000000E+00
  0.00000000E+00  0.00000000E+00  0.00000000E+00
  0.00000000E+00  0.00000000E+00  0.00000000E+00
  0.00000000E+00  0.00000000E+00  0.00000000E+00
