 H  C                                   
   1.00000000000000     
     8.0000000000000000    0.0000000000000000    0.0000000000000000
     0.0000000000000000    8.0000000000000000    0.0000000000000000
     0.0000000000000000    0.0000000000000000    8.0000000000000000
   H    C 
     2     2
Direct
  0.0000000000000000  0.0000000000000000  0.7905901553856051
  0.0000000000000000  0.0000000000000000  0.2094098446143949
  0.0000000000000000  0.0000000000000000  0.0754714817341125
  0.0000000000000000  0.0000000000000000  0.9245285182658876
 
  0.00000000E+00  0.00000000E+00  0.00000000E+00
  0.00000000E+00  0.00000000E+00  0.00000000E+00
  0.00000000E+00  0.00000000E+00  0.00000000E+00
  0.00000000E+00  0.00000000E+00  0.00000000E+00
