 H  C                                   
   1.00000000000000     
     8.0000000000000000    0.0000000000000000    0.0000000000000000
     0.0000000000000000    8.0000000000000000    0.0000000000000000
     0.0000000000000000    0.0000000000000000    8.0000000000000000
   H    C 
     2     2
Direct
  0.0000000000000000  0.0000000000000000  0.7906648157276274
  0.0000000000000000  0.0000000000000000  0.2093351842723726
  0.0000000000000000  0.0000000000000000  0.0754773971772631
  0.0000000000000000  0.0000000000000000  0.9245226028227369
 
  0.00000000E+00  0.00000000E+00  0.00000000E+00
  0.00000000E+00  0.00000000E+00  0.00000000E+00
  0.00000000E+00  0.00000000E+00  0.00000000E+00
  0.00000000E+00  0.00000000E+00  0.00000000E+00
