 C  F                                   
   1.00000000000000     
     8.0000000000000000    0.0000000000000000    0.0000000000000000
     0.0000000000000000    8.0000000000000000    0.0000000000000000
     0.0000000000000000    0.0000000000000000    8.0000000000000000
   C    F 
     1     4
Direct
  0.0000000000000000  0.0000000000000000  0.0000000000000000
  0.0970349984975803  0.0970349984975803  0.0970349984975803
  0.9029650015024198  0.9029650015024198  0.0970349984975803
  0.9029650015024198  0.0970349984975803  0.9029650015024198
  0.0970349984975803  0.9029650015024198  0.9029650015024198
 
  0.00000000E+00  0.00000000E+00  0.00000000E+00
  0.00000000E+00  0.00000000E+00  0.00000000E+00
  0.00000000E+00  0.00000000E+00  0.00000000E+00
  0.00000000E+00  0.00000000E+00  0.00000000E+00
  0.00000000E+00  0.00000000E+00  0.00000000E+00
