 H  C                                   
   1.00000000000000     
     8.0000000000000000    0.0000000000000000    0.0000000000000000
     0.0000000000000000    8.0000000000000000    0.0000000000000000
     0.0000000000000000    0.0000000000000000    8.0000000000000000
   H    C 
     4     2
Direct
  0.0000000000000000  0.1161351791027394  0.1551006313870068
  0.0000000000000000  0.8838648208972606  0.1551006313870068
  0.0000000000000000  0.1161351791027394  0.8448993686129932
  0.0000000000000000  0.8838648208972606  0.8448993686129932
  0.0000000000000000  0.0000000000000000  0.0833399293091027
  0.0000000000000000  0.0000000000000000  0.9166600706908973
 
  0.00000000E+00  0.00000000E+00  0.00000000E+00
  0.00000000E+00  0.00000000E+00  0.00000000E+00
  0.00000000E+00  0.00000000E+00  0.00000000E+00
  0.00000000E+00  0.00000000E+00  0.00000000E+00
  0.00000000E+00  0.00000000E+00  0.00000000E+00
  0.00000000E+00  0.00000000E+00  0.00000000E+00
