 C  F 
 1.0000000000000000
     8.0000000000000000    0.0000000000000000    0.0000000000000000
     0.0000000000000000    8.0000000000000000    0.0000000000000000
     0.0000000000000000    0.0000000000000000    8.0000000000000000
   1   4
Cartesian
  0.0000000000000000  0.0000000000000000  0.0000000000000000
  0.7674360000000000  0.7674360000000000  0.7674360000000000
 -0.7674360000000000 -0.7674360000000000  0.7674360000000000
 -0.7674360000000000  0.7674360000000000 -0.7674360000000000
  0.7674360000000000 -0.7674360000000000 -0.7674360000000000
