 H  C 
 1.0000000000000000
     8.0000000000000000    0.0000000000000000    0.0000000000000000
     0.0000000000000000    8.0000000000000000    0.0000000000000000
     0.0000000000000000    0.0000000000000000    8.0000000000000000
   2   2
Cartesian
  0.0000000000000000  0.0000000000000000 -1.6739900000000001
  0.0000000000000000  0.0000000000000000  1.6739900000000001
  0.0000000000000000  0.0000000000000000  0.6080800000000000
  0.0000000000000000  0.0000000000000000 -0.6080800000000000
