 H  C                                   
   1.00000000000000     
     8.0000000000000000    0.0000000000000000    0.0000000000000000
     0.0000000000000000    8.0000000000000000    0.0000000000000000
     0.0000000000000000    0.0000000000000000    8.0000000000000000
   H    C 
     2     2
Direct
  0.0000000000000000  0.0000000000000000  0.7906264566090319
  0.0000000000000000  0.0000000000000000  0.2093735433909682
  0.0000000000000000  0.0000000000000000  0.0754611030912380
  0.0000000000000000  0.0000000000000000  0.9245388969087619
 
  0.00000000E+00  0.00000000E+00  0.00000000E+00
  0.00000000E+00  0.00000000E+00  0.00000000E+00
  0.00000000E+00  0.00000000E+00  0.00000000E+00
  0.00000000E+00  0.00000000E+00  0.00000000E+00
