 H  C                                   
   1.00000000000000     
     8.0000000000000000    0.0000000000000000    0.0000000000000000
     0.0000000000000000    8.0000000000000000    0.0000000000000000
     0.0000000000000000    0.0000000000000000    8.0000000000000000
   H    C 
     4     2
Direct
  0.0000000000000000  0.1155996338073777  0.1548509025914399
  0.0000000000000000  0.8844003661926223  0.1548509025914399
  0.0000000000000000  0.1155996338073777  0.8451490974085600
  0.0000000000000000  0.8844003661926223  0.8451490974085600
  0.0000000000000000  0.0000000000000000  0.0830674611801995
  0.0000000000000000  0.0000000000000000  0.9169325388198005
 
  0.00000000E+00  0.00000000E+00  0.00000000E+00
  0.00000000E+00  0.00000000E+00  0.00000000E+00
  0.00000000E+00  0.00000000E+00  0.00000000E+00
  0.00000000E+00  0.00000000E+00  0.00000000E+00
  0.00000000E+00  0.00000000E+00  0.00000000E+00
  0.00000000E+00  0.00000000E+00  0.00000000E+00
