 H  C                                   
   1.00000000000000     
     8.0000000000000000    0.0000000000000000    0.0000000000000000
     0.0000000000000000    8.0000000000000000    0.0000000000000000
     0.0000000000000000    0.0000000000000000    8.0000000000000000
   H    C 
     4     2
Direct
  0.5000000000000000  0.6153539999999964  0.6547118749999967
  0.5000000000000000  0.3846459999999965  0.6547118749999967
  0.5000000000000000  0.6153539999999964  0.3452881250000033
  0.5000000000000000  0.3846459999999965  0.3452881250000033
  0.5000000000000000  0.5000000000000000  0.5834350000000015
  0.5000000000000000  0.5000000000000000  0.4165649999999985
 
  0.00000000E+00  0.00000000E+00  0.00000000E+00
  0.00000000E+00  0.00000000E+00  0.00000000E+00
  0.00000000E+00  0.00000000E+00  0.00000000E+00
  0.00000000E+00  0.00000000E+00  0.00000000E+00
  0.00000000E+00  0.00000000E+00  0.00000000E+00
  0.00000000E+00  0.00000000E+00  0.00000000E+00
