INCAR created by Atomic Simulation Environment
 ENCUT = 400.000000
 PREC = Normal
