 H  C 
 1.0000000000000000
     8.0000000000000000    0.0000000000000000    0.0000000000000000
     0.0000000000000000    8.0000000000000000    0.0000000000000000
     0.0000000000000000    0.0000000000000000    8.0000000000000000
   4   2
Cartesian
  4.0000000000000000  4.9228319999999997  5.2376950000000004
  4.0000000000000000  3.0771679999999999  5.2376950000000004
  4.0000000000000000  4.9228319999999997  2.7623050000000000
  4.0000000000000000  3.0771679999999999  2.7623050000000000
  4.0000000000000000  4.0000000000000000  4.6674800000000003
  4.0000000000000000  4.0000000000000000  3.3325200000000001
