 H  C                                   
   1.00000000000000     
     8.0000000000000000    0.0000000000000000    0.0000000000000000
     0.0000000000000000    8.0000000000000000    0.0000000000000000
     0.0000000000000000    0.0000000000000000    8.0000000000000000
   H    C 
     6     2
Direct
  0.0000000000000000  0.1281929929081230  0.1451884543274320
  0.8889845215096750  0.9359097774522452  0.1451856853613986
  0.1110154784903251  0.9359097774522452  0.1451856853613986
  0.0000000000000000  0.8718070070918769  0.8548115456725680
  0.8889845215096750  0.0640902225477548  0.8548143146386012
  0.1110154784903251  0.0640902225477548  0.8548143146386012
  0.0000000000000000  0.0000029202001669  0.0954915594453732
  0.0000000000000000 -0.0000029202001669  0.9045084405546268
 
  0.00000000E+00  0.00000000E+00  0.00000000E+00
  0.00000000E+00  0.00000000E+00  0.00000000E+00
  0.00000000E+00  0.00000000E+00  0.00000000E+00
  0.00000000E+00  0.00000000E+00  0.00000000E+00
  0.00000000E+00  0.00000000E+00  0.00000000E+00
  0.00000000E+00  0.00000000E+00  0.00000000E+00
  0.00000000E+00  0.00000000E+00  0.00000000E+00
  0.00000000E+00  0.00000000E+00  0.00000000E+00
