 H  C                                   
   1.00000000000000     
     8.0000000000000000    0.0000000000000000    0.0000000000000000
     0.0000000000000000    8.0000000000000000    0.0000000000000000
     0.0000000000000000    0.0000000000000000    8.0000000000000000
   H    C 
     4     2
Direct
  0.0000000000000000  0.1155942836020444  0.1548481730973653
  0.0000000000000000  0.8844057163979556  0.1548481730973653
  0.0000000000000000  0.1155942836020444  0.8451518269026347
  0.0000000000000000  0.8844057163979556  0.8451518269026347
  0.0000000000000000  0.0000000000000000  0.0830770340447082
  0.0000000000000000  0.0000000000000000  0.9169229659552919
 
  0.00000000E+00  0.00000000E+00  0.00000000E+00
  0.00000000E+00  0.00000000E+00  0.00000000E+00
  0.00000000E+00  0.00000000E+00  0.00000000E+00
  0.00000000E+00  0.00000000E+00  0.00000000E+00
  0.00000000E+00  0.00000000E+00  0.00000000E+00
  0.00000000E+00  0.00000000E+00  0.00000000E+00
