 C Cl                                   
   1.00000000000000     
     8.0000000000000000    0.0000000000000000    0.0000000000000000
     0.0000000000000000    8.0000000000000000    0.0000000000000000
     0.0000000000000000    0.0000000000000000    8.0000000000000000
   C    Cl
     1     4
Direct
  0.0000000000000000  0.0000000000000000  0.0000000000000000
  0.1282595106087491  0.1282595106087491  0.1282595106087491
  0.8717404893912509  0.8717404893912509  0.1282595106087491
  0.8717404893912509  0.1282595106087491  0.8717404893912509
  0.1282595106087491  0.8717404893912509  0.8717404893912509
 
  0.00000000E+00  0.00000000E+00  0.00000000E+00
  0.00000000E+00  0.00000000E+00  0.00000000E+00
  0.00000000E+00  0.00000000E+00  0.00000000E+00
  0.00000000E+00  0.00000000E+00  0.00000000E+00
  0.00000000E+00  0.00000000E+00  0.00000000E+00
