 C  F                                   
   1.00000000000000     
     8.0000000000000000    0.0000000000000000    0.0000000000000000
     0.0000000000000000    8.0000000000000000    0.0000000000000000
     0.0000000000000000    0.0000000000000000    8.0000000000000000
   C    F 
     1     4
Direct
  0.0000000000000000  0.0000000000000000  0.0000000000000000
  0.0970493372583123  0.0970493372583123  0.0970493372583123
  0.9029506627416877  0.9029506627416877  0.0970493372583123
  0.9029506627416877  0.0970493372583123  0.9029506627416877
  0.0970493372583123  0.9029506627416877  0.9029506627416877
 
  0.00000000E+00  0.00000000E+00  0.00000000E+00
  0.00000000E+00  0.00000000E+00  0.00000000E+00
  0.00000000E+00  0.00000000E+00  0.00000000E+00
  0.00000000E+00  0.00000000E+00  0.00000000E+00
  0.00000000E+00  0.00000000E+00  0.00000000E+00
