 C  F                                   
   1.00000000000000     
     8.0000000000000000    0.0000000000000000    0.0000000000000000
     0.0000000000000000    8.0000000000000000    0.0000000000000000
     0.0000000000000000    0.0000000000000000    8.0000000000000000
   C    F 
     1     4
Direct
  0.0000000000000000  0.0000000000000000  0.0000000000000000
  0.0955570032682208  0.0955570032682208  0.0955570032682208
  0.9044429967317792  0.9044429967317792  0.0955570032682208
  0.9044429967317792  0.0955570032682208  0.9044429967317792
  0.0955570032682208  0.9044429967317792  0.9044429967317792
 
  0.00000000E+00  0.00000000E+00  0.00000000E+00
  0.00000000E+00  0.00000000E+00  0.00000000E+00
  0.00000000E+00  0.00000000E+00  0.00000000E+00
  0.00000000E+00  0.00000000E+00  0.00000000E+00
  0.00000000E+00  0.00000000E+00  0.00000000E+00
