 H  C                                   
   1.00000000000000     
     8.0000000000000000    0.0000000000000000    0.0000000000000000
     0.0000000000000000    8.0000000000000000    0.0000000000000000
     0.0000000000000000    0.0000000000000000    8.0000000000000000
   H    C 
     6     2
Direct
  0.5000000000000000  0.6273696250000000  0.6446536249999966
  0.3896946249999971  0.4363151250000001  0.6446536249999966
  0.6103053750000029  0.4363151250000001  0.6446536249999966
  0.5000000000000000  0.3726303750000000  0.3553463750000034
  0.3896946249999971  0.5636848749999999  0.3553463750000034
  0.6103053750000029  0.5636848749999999  0.3553463750000034
  0.5000000000000000  0.5000000000000000  0.5952761249999980
  0.5000000000000000  0.5000000000000000  0.4047238750000020
 
  0.00000000E+00  0.00000000E+00  0.00000000E+00
  0.00000000E+00  0.00000000E+00  0.00000000E+00
  0.00000000E+00  0.00000000E+00  0.00000000E+00
  0.00000000E+00  0.00000000E+00  0.00000000E+00
  0.00000000E+00  0.00000000E+00  0.00000000E+00
  0.00000000E+00  0.00000000E+00  0.00000000E+00
  0.00000000E+00  0.00000000E+00  0.00000000E+00
  0.00000000E+00  0.00000000E+00  0.00000000E+00
