 H  C 
 1.0000000000000000
     8.0000000000000000    0.0000000000000000    0.0000000000000000
     0.0000000000000000    8.0000000000000000    0.0000000000000000
     0.0000000000000000    0.0000000000000000    8.0000000000000000
   6   2
Cartesian
  4.0000000000000000  5.0189570000000003  5.1572290000000001
  3.1175570000000001  3.4905210000000002  5.1572290000000001
  4.8824430000000003  3.4905210000000002  5.1572290000000001
  4.0000000000000000  2.9810430000000001  2.8427709999999999
  3.1175570000000001  4.5094789999999998  2.8427709999999999
  4.8824430000000003  4.5094789999999998  2.8427709999999999
  4.0000000000000000  4.0000000000000000  4.7622090000000004
  4.0000000000000000  4.0000000000000000  3.2377910000000001
