 H  C 
 1.0000000000000000
     8.0000000000000000    0.0000000000000000    0.0000000000000000
     0.0000000000000000    8.0000000000000000    0.0000000000000000
     0.0000000000000000    0.0000000000000000    8.0000000000000000
   4   1
Cartesian
  4.6291180000000001  4.6291180000000001  4.6291180000000001
  3.3708819999999999  3.3708819999999999  4.6291180000000001
  4.6291180000000001  3.3708819999999999  3.3708819999999999
  3.3708819999999999  4.6291180000000001  3.3708819999999999
  4.0000000000000000  4.0000000000000000  4.0000000000000000
