 H  C                                   
   1.00000000000000     
     8.0000000000000000    0.0000000000000000    0.0000000000000000
     0.0000000000000000    8.0000000000000000    0.0000000000000000
     0.0000000000000000    0.0000000000000000    8.0000000000000000
   H    C 
     4     1
Direct
  0.0791461052137602  0.0791461052137602  0.0791461052137602
  0.9208538947862399  0.9208538947862399  0.0791461052137602
  0.0791461052137602  0.9208538947862399  0.9208538947862399
  0.9208538947862399  0.0791461052137602  0.9208538947862399
  0.0000000000000000  0.0000000000000000  0.0000000000000000
 
  0.00000000E+00  0.00000000E+00  0.00000000E+00
  0.00000000E+00  0.00000000E+00  0.00000000E+00
  0.00000000E+00  0.00000000E+00  0.00000000E+00
  0.00000000E+00  0.00000000E+00  0.00000000E+00
  0.00000000E+00  0.00000000E+00  0.00000000E+00
