 H  C                                   
   1.00000000000000     
     8.0000000000000000    0.0000000000000000    0.0000000000000000
     0.0000000000000000    8.0000000000000000    0.0000000000000000
     0.0000000000000000    0.0000000000000000    8.0000000000000000
   H    C 
     2     2
Direct
  0.5000000000000000  0.5000000000000000  0.2907512499999996
  0.5000000000000000  0.5000000000000000  0.7092487500000004
  0.5000000000000000  0.5000000000000000  0.5760099999999966
  0.5000000000000000  0.5000000000000000  0.4239900000000034
 
  0.00000000E+00  0.00000000E+00  0.00000000E+00
  0.00000000E+00  0.00000000E+00  0.00000000E+00
  0.00000000E+00  0.00000000E+00  0.00000000E+00
  0.00000000E+00  0.00000000E+00  0.00000000E+00
