 H  C 
 1.0000000000000000
     8.0000000000000000    0.0000000000000000    0.0000000000000000
     0.0000000000000000    8.0000000000000000    0.0000000000000000
     0.0000000000000000    0.0000000000000000    8.0000000000000000
   2   2
Cartesian
  4.0000000000000000  4.0000000000000000  2.3260100000000001
  4.0000000000000000  4.0000000000000000  5.6739899999999999
  4.0000000000000000  4.0000000000000000  4.6080800000000002
  4.0000000000000000  4.0000000000000000  3.3919199999999998
