 H  C                                   
   1.00000000000000     
     8.0000000000000000    0.0000000000000000    0.0000000000000000
     0.0000000000000000    8.0000000000000000    0.0000000000000000
     0.0000000000000000    0.0000000000000000    8.0000000000000000
   H    C 
     6     2
Direct
  0.0000000000000000  0.1289721114623794  0.1455108691241540
  0.8882834937856685  0.9355361406127798  0.1454456870958604
  0.1117165062143315  0.9355361406127798  0.1454456870958604
  0.0000000000000000  0.8710278885376206  0.8544891308758461
  0.8882834937856685  0.0644638593872201  0.8545543129041395
  0.1117165062143315  0.0644638593872201  0.8545543129041395
  0.0000000000000000  0.0000182691079904  0.0955255293302464
  0.0000000000000000 -0.0000182691079904  0.9044744706697535
 
  0.00000000E+00  0.00000000E+00  0.00000000E+00
  0.00000000E+00  0.00000000E+00  0.00000000E+00
  0.00000000E+00  0.00000000E+00  0.00000000E+00
  0.00000000E+00  0.00000000E+00  0.00000000E+00
  0.00000000E+00  0.00000000E+00  0.00000000E+00
  0.00000000E+00  0.00000000E+00  0.00000000E+00
  0.00000000E+00  0.00000000E+00  0.00000000E+00
  0.00000000E+00  0.00000000E+00  0.00000000E+00
