 C  F                                   
   1.00000000000000     
     8.0000000000000000    0.0000000000000000    0.0000000000000000
     0.0000000000000000    8.0000000000000000    0.0000000000000000
     0.0000000000000000    0.0000000000000000    8.0000000000000000
   C    F 
     1     4
Direct
  0.5000000000000000  0.5000000000000000  0.5000000000000000
  0.5959294999999969  0.5959294999999969  0.5959294999999969
  0.4040705000000031  0.4040705000000031  0.5959294999999969
  0.4040705000000031  0.5959294999999969  0.4040705000000031
  0.5959294999999969  0.4040705000000031  0.4040705000000031
 
  0.00000000E+00  0.00000000E+00  0.00000000E+00
  0.00000000E+00  0.00000000E+00  0.00000000E+00
  0.00000000E+00  0.00000000E+00  0.00000000E+00
  0.00000000E+00  0.00000000E+00  0.00000000E+00
  0.00000000E+00  0.00000000E+00  0.00000000E+00
