INCAR created by Atomic Simulation Environment
 ENCUT = 450.000000
 PREC = Normal
