 C  F 
 1.0000000000000000
     8.0000000000000000    0.0000000000000000    0.0000000000000000
     0.0000000000000000    8.0000000000000000    0.0000000000000000
     0.0000000000000000    0.0000000000000000    8.0000000000000000
   1   4
Cartesian
  4.0000000000000000  4.0000000000000000  4.0000000000000000
  4.7674360000000000  4.7674360000000000  4.7674360000000000
  3.2325640000000000  3.2325640000000000  4.7674360000000000
  3.2325640000000000  4.7674360000000000  3.2325640000000000
  4.7674360000000000  3.2325640000000000  3.2325640000000000
