 H  C 
 1.0000000000000000
     8.0000000000000000    0.0000000000000000    0.0000000000000000
     0.0000000000000000    8.0000000000000000    0.0000000000000000
     0.0000000000000000    0.0000000000000000    8.0000000000000000
   4   1
Cartesian
  0.6291180000000000  0.6291180000000000  0.6291180000000000
 -0.6291180000000000 -0.6291180000000000  0.6291180000000000
  0.6291180000000000 -0.6291180000000000 -0.6291180000000000
 -0.6291180000000000  0.6291180000000000 -0.6291180000000000
  0.0000000000000000  0.0000000000000000  0.0000000000000000
