 H  C                                   
   1.00000000000000     
     8.0000000000000000    0.0000000000000000    0.0000000000000000
     0.0000000000000000    8.0000000000000000    0.0000000000000000
     0.0000000000000000    0.0000000000000000    8.0000000000000000
   H    C 
     6     2
Direct
  0.0000000000000000  0.1281751420677457  0.1451890197735139
  0.8889969213686082  0.9359167783355593  0.1451881113469861
  0.1110030786313919  0.9359167783355593  0.1451881113469861
  0.0000000000000000  0.8718248579322543  0.8548109802264861
  0.8889969213686082  0.0640832216644408  0.8548118886530139
  0.1110030786313919  0.0640832216644408  0.8548118886530139
  0.0000000000000000  0.0000012259641398  0.0955094667992794
  0.0000000000000000 -0.0000012259641398  0.9044905332007207
 
  0.00000000E+00  0.00000000E+00  0.00000000E+00
  0.00000000E+00  0.00000000E+00  0.00000000E+00
  0.00000000E+00  0.00000000E+00  0.00000000E+00
  0.00000000E+00  0.00000000E+00  0.00000000E+00
  0.00000000E+00  0.00000000E+00  0.00000000E+00
  0.00000000E+00  0.00000000E+00  0.00000000E+00
  0.00000000E+00  0.00000000E+00  0.00000000E+00
  0.00000000E+00  0.00000000E+00  0.00000000E+00
