 H  C 
 1.0000000000000000
     8.0000000000000000    0.0000000000000000    0.0000000000000000
     0.0000000000000000    8.0000000000000000    0.0000000000000000
     0.0000000000000000    0.0000000000000000    8.0000000000000000
   6   2
Cartesian
  0.0000000000000000  1.0189569999999999  1.1572290000000001
 -0.8824430000000000 -0.5094790000000000  1.1572290000000001
  0.8824430000000000 -0.5094790000000000  1.1572290000000001
  0.0000000000000000 -1.0189569999999999 -1.1572290000000001
 -0.8824430000000000  0.5094790000000000 -1.1572290000000001
  0.8824430000000000  0.5094790000000000 -1.1572290000000001
  0.0000000000000000  0.0000000000000000  0.7622090000000000
  0.0000000000000000  0.0000000000000000 -0.7622090000000000
