 H  C                                   
   1.00000000000000     
     8.0000000000000000    0.0000000000000000    0.0000000000000000
     0.0000000000000000    8.0000000000000000    0.0000000000000000
     0.0000000000000000    0.0000000000000000    8.0000000000000000
   H    C 
     2     2
Direct
  0.0000000000000000  0.0000000000000000  0.7906505582557163
  0.0000000000000000  0.0000000000000000  0.2093494417442837
  0.0000000000000000  0.0000000000000000  0.0754605916905585
  0.0000000000000000  0.0000000000000000  0.9245394083094415
 
  0.00000000E+00  0.00000000E+00  0.00000000E+00
  0.00000000E+00  0.00000000E+00  0.00000000E+00
  0.00000000E+00  0.00000000E+00  0.00000000E+00
  0.00000000E+00  0.00000000E+00  0.00000000E+00
