 C  F                                   
   1.00000000000000     
     8.0000000000000000    0.0000000000000000    0.0000000000000000
     0.0000000000000000    8.0000000000000000    0.0000000000000000
     0.0000000000000000    0.0000000000000000    8.0000000000000000
   C    F 
     1     4
Direct
  0.0000000000000000  0.0000000000000000  0.0000000000000000
  0.0978839432958555  0.0978839432958555  0.0978839432958555
  0.9021160567041445  0.9021160567041445  0.0978839432958555
  0.9021160567041445  0.0978839432958555  0.9021160567041445
  0.0978839432958555  0.9021160567041445  0.9021160567041445
 
  0.00000000E+00  0.00000000E+00  0.00000000E+00
  0.00000000E+00  0.00000000E+00  0.00000000E+00
  0.00000000E+00  0.00000000E+00  0.00000000E+00
  0.00000000E+00  0.00000000E+00  0.00000000E+00
  0.00000000E+00  0.00000000E+00  0.00000000E+00
