 H  C                                   
   1.00000000000000     
     8.0000000000000000    0.0000000000000000    0.0000000000000000
     0.0000000000000000    8.0000000000000000    0.0000000000000000
     0.0000000000000000    0.0000000000000000    8.0000000000000000
   H    C 
     6     2
Direct
  0.0000000000000000  0.1282355074076371  0.1451838048967886
  0.8889406873248450  0.9358911254257717  0.1451838673610071
  0.1110593126751549  0.9358911254257717  0.1451838673610071
  0.0000000000000000  0.8717644925923628  0.8548161951032115
  0.8889406873248450  0.0641088745742281  0.8548161326389929
  0.1110593126751549  0.0641088745742281  0.8548161326389929
  0.0000000000000000  0.0000020416504316  0.0954506017168454
  0.0000000000000000 -0.0000020416504316  0.9045493982831545
 
  0.00000000E+00  0.00000000E+00  0.00000000E+00
  0.00000000E+00  0.00000000E+00  0.00000000E+00
  0.00000000E+00  0.00000000E+00  0.00000000E+00
  0.00000000E+00  0.00000000E+00  0.00000000E+00
  0.00000000E+00  0.00000000E+00  0.00000000E+00
  0.00000000E+00  0.00000000E+00  0.00000000E+00
  0.00000000E+00  0.00000000E+00  0.00000000E+00
  0.00000000E+00  0.00000000E+00  0.00000000E+00
