 H  C                                   
   1.00000000000000     
     8.0000000000000000    0.0000000000000000    0.0000000000000000
     0.0000000000000000    8.0000000000000000    0.0000000000000000
     0.0000000000000000    0.0000000000000000    8.0000000000000000
   H    C 
     2     2
Direct
  0.0000000000000000  0.0000000000000000  0.7905884923106503
  0.0000000000000000  0.0000000000000000  0.2094115076893498
  0.0000000000000000  0.0000000000000000  0.0754868277164508
  0.0000000000000000  0.0000000000000000  0.9245131722835491
 
  0.00000000E+00  0.00000000E+00  0.00000000E+00
  0.00000000E+00  0.00000000E+00  0.00000000E+00
  0.00000000E+00  0.00000000E+00  0.00000000E+00
  0.00000000E+00  0.00000000E+00  0.00000000E+00
