 H  C                                   
   1.00000000000000     
     8.0000000000000000    0.0000000000000000    0.0000000000000000
     0.0000000000000000    8.0000000000000000    0.0000000000000000
     0.0000000000000000    0.0000000000000000    8.0000000000000000
   H    C 
     4     2
Direct
  0.0000000000000000  0.1168392715945909  0.1556067961058989
  0.0000000000000000  0.8831607284054090  0.1556067961058989
  0.0000000000000000  0.1168392715945909  0.8443932038941011
  0.0000000000000000  0.8831607284054090  0.8443932038941011
  0.0000000000000000  0.0000000000000000  0.0836047040513064
  0.0000000000000000  0.0000000000000000  0.9163952959486936
 
  0.00000000E+00  0.00000000E+00  0.00000000E+00
  0.00000000E+00  0.00000000E+00  0.00000000E+00
  0.00000000E+00  0.00000000E+00  0.00000000E+00
  0.00000000E+00  0.00000000E+00  0.00000000E+00
  0.00000000E+00  0.00000000E+00  0.00000000E+00
  0.00000000E+00  0.00000000E+00  0.00000000E+00
