 C Cl                                   
   1.00000000000000     
     8.0000000000000000    0.0000000000000000    0.0000000000000000
     0.0000000000000000    8.0000000000000000    0.0000000000000000
     0.0000000000000000    0.0000000000000000    8.0000000000000000
   C    Cl
     1     4
Direct
  0.5000000000000000  0.5000000000000000  0.5000000000000000
  0.6276675000000012  0.6276675000000012  0.6276675000000012
  0.3723324999999988  0.3723324999999988  0.6276675000000012
  0.3723324999999988  0.6276675000000012  0.3723324999999988
  0.6276675000000012  0.3723324999999988  0.3723324999999988
 
  0.00000000E+00  0.00000000E+00  0.00000000E+00
  0.00000000E+00  0.00000000E+00  0.00000000E+00
  0.00000000E+00  0.00000000E+00  0.00000000E+00
  0.00000000E+00  0.00000000E+00  0.00000000E+00
  0.00000000E+00  0.00000000E+00  0.00000000E+00
