 C Cl 
 1.0000000000000000
     8.0000000000000000    0.0000000000000000    0.0000000000000000
     0.0000000000000000    8.0000000000000000    0.0000000000000000
     0.0000000000000000    0.0000000000000000    8.0000000000000000
   1   4
Cartesian
  4.0000000000000000  4.0000000000000000  4.0000000000000000
  5.0213400000000004  5.0213400000000004  5.0213400000000004
  2.9786600000000001  2.9786600000000001  5.0213400000000004
  2.9786600000000001  5.0213400000000004  2.9786600000000001
  5.0213400000000004  2.9786600000000001  2.9786600000000001
