 H  C                                   
   1.00000000000000     
     8.0000000000000000    0.0000000000000000    0.0000000000000000
     0.0000000000000000    8.0000000000000000    0.0000000000000000
     0.0000000000000000    0.0000000000000000    8.0000000000000000
   H    C 
     6     2
Direct
  0.0000000000000000  0.1284704029654993  0.1452330090616781
  0.8887285045461948  0.9357714470081503  0.1452515740834420
  0.1112714954538051  0.9357714470081503  0.1452515740834420
  0.0000000000000000  0.8715295970345007  0.8547669909383219
  0.8887285045461948  0.0642285529918497  0.8547484259165581
  0.1112714954538051  0.0642285529918497  0.8547484259165581
  0.0000000000000000 -0.0000008821624953  0.0953187578847369
  0.0000000000000000  0.0000008821624953  0.9046812421152631
 
  0.00000000E+00  0.00000000E+00  0.00000000E+00
  0.00000000E+00  0.00000000E+00  0.00000000E+00
  0.00000000E+00  0.00000000E+00  0.00000000E+00
  0.00000000E+00  0.00000000E+00  0.00000000E+00
  0.00000000E+00  0.00000000E+00  0.00000000E+00
  0.00000000E+00  0.00000000E+00  0.00000000E+00
  0.00000000E+00  0.00000000E+00  0.00000000E+00
  0.00000000E+00  0.00000000E+00  0.00000000E+00
